
******************************************************************************
This program contains Ipopt, a library for large-scale nonlinear optimization.
 Ipopt is released as open source code under the Eclipse Public License (EPL).
         For more information visit http://projects.coin-or.org/Ipopt
******************************************************************************

This is Ipopt version 3.12.6, running with linear solver ma57.

Number of nonzeros in equality constraint Jacobian...:        0
Number of nonzeros in inequality constraint Jacobian.:     3996
Number of nonzeros in Lagrangian Hessian.............:   500500

Total number of variables............................:     1000
                     variables with only lower bounds:        0
                variables with lower and upper bounds:        0
                     variables with only upper bounds:        0
Total number of equality constraints.................:        0
Total number of inequality constraints...............:     1998
        inequality constraints with only lower bounds:      999
   inequality constraints with lower and upper bounds:        0
        inequality constraints with only upper bounds:      999

iter    objective    inf_pr   inf_du lg(mu)  ||d||  lg(rg) alpha_du alpha_pr  ls
   0  4.9950000e+05 0.00e+00 2.74e+01  -1.0 0.00e+00    -  0.00e+00 0.00e+00   0
   1  4.0757532e+05 0.00e+00 2.64e+01  -1.0 2.48e+01   0.0 3.67e-01 2.17e-01f  1
   2  3.9751330e+05 0.00e+00 9.48e+01  -1.0 9.61e+01  -0.5 1.50e-01 3.27e-03f  1
   3  3.1453740e+05 0.00e+00 3.03e+01  -1.0 2.79e+00    -  6.57e-01 7.25e-01f  1
   4  2.4135374e+05 1.77e+00 3.51e+01  -1.0 8.44e+00    -  6.64e-01 1.00e+00f  1
   5  2.3267307e+05 5.64e+00 3.10e+01  -1.0 3.91e+01    -  4.91e-01 1.08e-01f  1
   6  2.2839060e+05 4.50e+00 2.54e+01  -1.0 1.37e+01    -  1.00e+00 2.09e-01f  1
   7  2.2929783e+05 1.96e+00 1.26e+01  -1.0 5.57e+00    -  1.00e+00 5.93e-01h  1
   8  2.3222797e+05 6.57e-02 1.97e+00  -1.0 1.69e+00    -  1.00e+00 1.00e+00h  1
   9  2.3238126e+05 0.00e+00 1.57e-02  -1.0 2.28e-01    -  1.00e+00 1.00e+00h  1
iter    objective    inf_pr   inf_du lg(mu)  ||d||  lg(rg) alpha_du alpha_pr  ls
  10  2.3198013e+05 0.00e+00 3.45e-01  -2.5 4.54e-01    -  1.00e+00 9.07e-01f  1
  11  2.3193179e+05 4.46e-04 1.04e-02  -2.5 2.54e-01    -  1.00e+00 1.00e+00f  1
  12  2.3192057e+05 3.24e-04 6.72e-01  -3.8 1.36e-01    -  1.00e+00 8.68e-01f  1
  13  2.3191890e+05 1.27e-04 1.52e-03  -3.8 7.77e-02    -  1.00e+00 1.00e+00f  1
  14  2.3191881e+05 0.00e+00 2.34e-04  -3.8 2.82e-02    -  1.00e+00 1.00e+00h  1
  15  2.3191828e+05 1.12e-05 2.66e-01  -5.7 1.95e-02    -  1.00e+00 8.70e-01f  1
  16  2.3191822e+05 6.05e-06 3.54e-01  -5.7 1.15e-02    -  1.00e+00 7.80e-01h  1
Reallocating memory for MA57: lfact (2363809)
  17  2.3191820e+05 1.80e-06 2.08e-05  -5.7 4.89e-03    -  1.00e+00 1.00e+00f  1
  18  2.3191820e+05 0.00e+00 1.66e-06  -5.7 1.01e-03    -  1.00e+00 1.00e+00h  1
  19  2.3191819e+05 1.03e-07 9.29e-03  -8.6 6.92e-04    -  9.34e-01 9.62e-01h  1
Reallocating memory for MA57: lfact (2865483)
iter    objective    inf_pr   inf_du lg(mu)  ||d||  lg(rg) alpha_du alpha_pr  ls
  20  2.3191819e+05 6.23e-09 3.11e-07  -8.6 2.06e-04    -  1.00e+00 1.00e+00h  1
  21  2.3191819e+05 0.00e+00 8.08e-08  -8.6 5.72e-05    -  1.00e+00 1.00e+00h  1
Reallocating memory for MA57: lfact (3112651)
  22  2.3191819e+05 0.00e+00 1.91e-08  -8.6 2.78e-05    -  1.00e+00 1.00e+00h  1
  23  2.3191819e+05 0.00e+00 5.13e-09  -9.0 1.44e-05    -  1.00e+00 1.00e+00h  1

Number of Iterations....: 23

                                   (scaled)                 (unscaled)
Objective...............:   2.3215033940772621e+04    2.3191818906831846e+05
Dual infeasibility......:   5.1250808041913842e-09    5.1199557233871927e-08
Constraint violation....:   0.0000000000000000e+00    0.0000000000000000e+00
Complementarity.........:   3.8893457535319333e-09    3.8854564077784014e-08
Overall NLP error.......:   5.1250808041913842e-09    5.1199557233871927e-08


Number of objective function evaluations             = 24
Number of objective gradient evaluations             = 24
Number of equality constraint evaluations            = 0
Number of inequality constraint evaluations          = 24
Number of equality constraint Jacobian evaluations   = 0
Number of inequality constraint Jacobian evaluations = 24
Number of Lagrangian Hessian evaluations             = 23
Total CPU secs in IPOPT (w/o function evaluations)   =      2.260
Total CPU secs in NLP function evaluations           =      5.273

EXIT: Optimal Solution Found.

************************ CUTEst statistics ************************


 Package used            :  IPOPT
 Problem                 :  GPP       
 # variables             =            1000
 # constraints           =            1998
 # objective functions   =        0.4900000E+02
 # objective gradients   =        0.2500000E+02
 # objective Hessians    =        0.2400000E+02
 # Hessian-vector prdct  =        0.0000000E+00
 # constraints functions =        0.5000000E+02
 # constraints gradients =        0.2600000E+02
 # constraints Hessians  =        0.2400000E+02
 Exit code               =               0
 Final f                 =   0.2319182E+06
 Set up time             =            4.82 seconds
 Solve time              =            9.71 seconds


******************************************************************

System Time =       7.0460000038 s.
